t = 8; %number of attributes
k = 3; %maximum size of support set
n = 5; %number of positive instances
m = 3; %number of negative instances
c = 4; %number of atMostOne Constraints

omegap=[| 1,0,1,1,0,0,1,1|
0,0,0,0,0,0,0,0|
0,0,1,1,0,0,1,0|
0,0,1,1,0,0,1,1|
0,0,1,0,0,1,0,1
|];

omegan=[| 0,0,0,0,1,0,1,1|
0,1,1,1,0,1,0,0|
0,1,0,0,1,0,1,1
|];

atMostOne =
[{1,3,4,6,8},
{2,3,4,6,8},
{3,5},
{1,2,3,4,5,8}];